NAME : XML100_3175_02
DIMENSION : 101
NB_CLUSTERS : 6
CLUSTERING_ALG : KMedoids
CLUSTERING_PARAMS : k(5)
CLUSTERS
1 0
2 4 7 13 19 21 37 44 46 61 76 92 97 100
3 8 12 15 22 30 32 34 35 52 53 54 55 63 70 73 80 82 83 86 88 89 91 93 98 99
4 1 3 5 14 20 24 25 26 39 42 43 49 51 58 60 65 67 69 77 78 81 84 95 96
5 2 6 9 10 16 27 28 31 33 40 47 48 56 57 64 66 72 90 94
6 11 17 18 23 29 36 38 41 45 50 59 62 68 71 74 75 79 85 87
EOF